PRODUCT = {AXE, SWORD, PIKE, SPEAR, CLUB};
profit = [110, 180, 150, 170, 110];  % *10
RESOURCE = {IRON, WOOD, SMITH, CARPENTER};
capacity = [50000, 75000, 40000, 30000];  % *10
consumption = [| 15, 10, 10, 10   % *10 (1.5->15)
               | 20, 0, 20, 0     % *10 (2.0->20)
               | 15, 5, 10, 10   % *10 (1.5->15, 5.0->50)
               | 5, 10, 9, 15    % *10 (5.0->50, 1.0->10, 0.9->9, 1.5->15)
               | 10, 25, 10, 25 |];  % *10 (1.0->10, 2.5->25)
